   85

C      -2.728050   -1.548540    0.617250
C      -2.673520   -2.848520    0.063870
C      -1.569780   -3.281370   -0.654490
C      -0.505900   -2.425140   -0.875690
C      -0.495650   -1.106070   -0.394560
C      -1.615310   -0.688110    0.389830
C       0.755320   -2.877090   -1.298720
C       1.677410   -2.288640   -1.667460
C       1.685190   -0.884960   -1.527600
C       0.622790   -0.272570   -0.783450
C       2.690810   -2.966830   -2.340480
C       3.740210   -2.250890   -2.911020
C       3.762390   -0.857470   -2.818940
C       2.742880   -0.174940   -2.141760
C      -1.576510    4.201250   -0.870460
C      -2.670160    3.667730   -1.698720
C      -2.631840    2.390520   -2.076800
C       0.626950    1.218010   -0.461360
C      -0.493680    2.031530   -0.865190
C      -0.544920    3.408340   -0.499220
C      -1.504520    1.539780   -1.640950
C       2.972950    1.224500    0.516110
C       0.493740    3.977850    0.224440
C       4.078950    1.945900    1.027090
C       1.631110    3.246360    0.538110
C       1.737610    1.869760    0.203330
C       2.682900    3.916980    1.167560
C       3.889070    3.281100    1.391110
C       5.460390    1.361060    1.085290
C       5.886910   -0.059150    1.154650
C       7.261990   -0.125020    0.966610
C       7.779940    1.212290    0.752760
C       6.725750    2.113650    0.803370
C       5.156420   -1.234200    1.378450
C       5.838760   -2.463890    1.382740
C       7.229570   -2.514030    1.174020
C       7.954500   -1.334660    0.966390
C       6.972850    3.473280    0.528470
C       8.286320    3.893510    0.258540
C       9.341040    2.968640    0.243740
C       9.091140    1.612370    0.483910
C      -3.951800   -1.083320    1.442320
C      -4.728830    0.055120    0.795810
C      -5.068460   -2.120120    1.544430
C      -6.236850   -1.672520    0.955250
C      -6.031200   -0.322560    0.500400
C      -5.029510   -3.391540    2.134210
C      -6.178630   -4.201190    2.084600
C      -7.352550   -3.737210    1.463250
C      -7.391280   -2.455580    0.897350
C      -6.946140    0.548370   -0.093520
C      -4.316180    1.366430    0.530120
C      -6.531820    1.854940   -0.374730
C      -5.227790    2.264390   -0.052660
H      -8.232980   -4.365980    1.428800
H      -8.296650   -2.087710    0.432550
H      -4.126410   -3.752200    2.607760
H      -6.161340   -5.189380    2.524340
H      -7.958450    0.236160   -0.314610
H      -7.223440    2.556310   -0.823630
H      -4.931300    3.283670   -0.251920
H      -3.323900    1.706660    0.780590
H       4.093210   -1.224600    1.554050
H       5.291940   -3.382270    1.548380
H       7.744600   -3.465770    1.174820
H       9.024590   -1.368050    0.803500
H       6.202420    4.220810    0.492800
H       8.482720    4.936780    0.049710
H      10.346450    3.304380    0.025390
H       9.901220    0.894980    0.442740
H      -3.471690   -3.562180    0.172890
H      -1.633460    0.303620    0.807710
H      -1.542760   -4.284160   -1.059810
H       0.874560   -4.612800   -0.432520
H       2.796160    0.903090   -2.102700
H       4.573780   -0.304100   -3.272250
H       2.659050   -4.046290   -2.410830
H       4.531300   -2.776610   -3.429470
H       3.121470    0.197950    0.268490
H       2.595230    4.963010    1.439820
H       4.675380    3.856720    1.847360
H       0.449170    5.030810    0.489950
H      -1.527170    0.524090   -2.007130
H      -1.610220    5.252590   -0.594270
H      -3.488320    4.307820   -2.009480
