   85

C      -2.730313   -1.538008    0.629004
C      -2.669143   -2.852689    0.060672
C      -1.579076   -3.281108   -0.650225
C      -0.495966   -2.431402   -0.873821
C      -0.498959   -1.094813   -0.393990
C      -1.617902   -0.694230    0.388345
C       0.651821   -2.956106   -1.249359
C       1.764986   -2.241514   -1.702941
C       1.681088   -0.867305   -1.524392
C       0.624651   -0.264961   -0.781951
C       2.710993   -2.965586   -2.348262
C       3.735322   -2.259073   -2.908304
C       3.756899   -0.850391   -2.814813
C       2.749647   -0.178369   -2.146718
C      -1.600401    4.204630   -0.885412
C      -2.660881    3.685902   -1.687776
C      -2.615602    2.365217   -2.074106
C       0.630038    1.211515   -0.461376
C      -0.484579    2.028106   -0.858685
C      -0.538882    3.405895   -0.495303
C      -1.530194    1.545120   -1.657037
C       2.972878    1.230055    0.518652
C       0.498454    3.977147    0.226834
C       4.090462    1.932452    1.026112
C       1.624611    3.252545    0.537297
C       1.737923    1.859936    0.200497
C       2.694305    3.915265    1.170945
C       3.883047    3.291175    1.391301
C       5.457435    1.362424    1.081254
C       5.874630   -0.051674    1.155323
C       7.272080   -0.126641    0.965535
C       7.788248    1.206637    0.752294
C       6.711557    2.118120    0.806157
C       5.159537   -1.237916    1.378223
C       5.839663   -2.460300    1.382185
C       7.227927   -2.512454    1.174142
C       7.951546   -1.335230    0.967073
C       6.977592    3.472802    0.528163
C       8.284174    3.890108    0.259215
C       9.339401    2.968153    0.244065
C       9.089215    1.614647    0.483851
C      -3.959094   -1.091254    1.421341
C      -4.714651    0.056891    0.803379
C      -5.052499   -2.119901    1.551683
C      -6.245549   -1.670040    0.953089
C      -6.039802   -0.322876    0.498967
C      -5.033153   -3.393013    2.132762
C      -6.177276   -4.198139    2.083615
C      -7.350565   -3.735358    1.463430
C      -7.389301   -2.458416    0.899231
C      -6.943212    0.550194   -0.093094
C      -4.319268    1.367297    0.527890
C      -6.529857    1.854045   -0.373559
C      -5.228969    2.261233   -0.052481
H      -8.236571   -4.368809    1.428808
H      -8.300443   -2.086124    0.430380
H      -4.122514   -3.753724    2.610341
H      -6.161200   -5.193627    2.526375
H      -7.962672    0.234496   -0.315789
H      -7.226228    2.559327   -0.825511
H      -4.929650    3.288226   -0.252460
H      -3.319171    1.708545    0.782021
H       4.087731   -1.224179    1.555164
H       5.289365   -3.386086    1.549070
H       7.746540   -3.469987    1.174904
H       9.028999   -1.368121    0.802928
H       6.197084    4.224240    0.492782
H       8.483425    4.941199    0.048848
H      10.350793    3.305762    0.024576
H       9.904406    0.891851    0.442662
H      -3.477153   -3.564423    0.174357
H      -1.632782    0.308383    0.810286
H      -1.542032   -4.288524   -1.061195
H       0.874270   -4.597745   -0.444757
H       2.795221    0.907912   -2.102332
H       4.576961   -0.301233   -3.274206
H       2.658013   -4.050448   -2.410786
H       4.534545   -2.778874   -3.431938
H       3.121798    0.190635    0.266583
H       2.593687    4.966843    1.440923
H       4.680022    3.858560    1.850305
H       0.448879    5.034270    0.491120
H      -1.525238    0.519507   -2.008656
H      -1.610024    5.256094   -0.593068
H      -3.491734    4.312138   -2.009611
